&projwfc
  prefix = 'NiO_afm'
  Emax = 20.0
  Emin = -6.0
  ngauss = 0
  DeltaE = 0.2
  outdir = '/home/ponet/NiO/NSOC/outputs'
  degauss = 0.01
/

K_POINTS (crystal)
125
 0.0 0.0 0.0 0.008
 0.2 0.0 0.0 0.008
 0.4 0.0 0.0 0.008
 0.6 0.0 0.0 0.008
 0.8 0.0 0.0 0.008
 0.0 0.2 0.0 0.008
 0.2 0.2 0.0 0.008
 0.4 0.2 0.0 0.008
 0.6 0.2 0.0 0.008
 0.8 0.2 0.0 0.008
 0.0 0.4 0.0 0.008
 0.2 0.4 0.0 0.008
 0.4 0.4 0.0 0.008
 0.6 0.4 0.0 0.008
 0.8 0.4 0.0 0.008
 0.0 0.6 0.0 0.008
 0.2 0.6 0.0 0.008
 0.4 0.6 0.0 0.008
 0.6 0.6 0.0 0.008
 0.8 0.6 0.0 0.008
 0.0 0.8 0.0 0.008
 0.2 0.8 0.0 0.008
 0.4 0.8 0.0 0.008
 0.6 0.8 0.0 0.008
 0.8 0.8 0.0 0.008
 0.0 0.0 0.2 0.008
 0.2 0.0 0.2 0.008
 0.4 0.0 0.2 0.008
 0.6 0.0 0.2 0.008
 0.8 0.0 0.2 0.008
 0.0 0.2 0.2 0.008
 0.2 0.2 0.2 0.008
 0.4 0.2 0.2 0.008
 0.6 0.2 0.2 0.008
 0.8 0.2 0.2 0.008
 0.0 0.4 0.2 0.008
 0.2 0.4 0.2 0.008
 0.4 0.4 0.2 0.008
 0.6 0.4 0.2 0.008
 0.8 0.4 0.2 0.008
 0.0 0.6 0.2 0.008
 0.2 0.6 0.2 0.008
 0.4 0.6 0.2 0.008
 0.6 0.6 0.2 0.008
 0.8 0.6 0.2 0.008
 0.0 0.8 0.2 0.008
 0.2 0.8 0.2 0.008
 0.4 0.8 0.2 0.008
 0.6 0.8 0.2 0.008
 0.8 0.8 0.2 0.008
 0.0 0.0 0.4 0.008
 0.2 0.0 0.4 0.008
 0.4 0.0 0.4 0.008
 0.6 0.0 0.4 0.008
 0.8 0.0 0.4 0.008
 0.0 0.2 0.4 0.008
 0.2 0.2 0.4 0.008
 0.4 0.2 0.4 0.008
 0.6 0.2 0.4 0.008
 0.8 0.2 0.4 0.008
 0.0 0.4 0.4 0.008
 0.2 0.4 0.4 0.008
 0.4 0.4 0.4 0.008
 0.6 0.4 0.4 0.008
 0.8 0.4 0.4 0.008
 0.0 0.6 0.4 0.008
 0.2 0.6 0.4 0.008
 0.4 0.6 0.4 0.008
 0.6 0.6 0.4 0.008
 0.8 0.6 0.4 0.008
 0.0 0.8 0.4 0.008
 0.2 0.8 0.4 0.008
 0.4 0.8 0.4 0.008
 0.6 0.8 0.4 0.008
 0.8 0.8 0.4 0.008
 0.0 0.0 0.6 0.008
 0.2 0.0 0.6 0.008
 0.4 0.0 0.6 0.008
 0.6 0.0 0.6 0.008
 0.8 0.0 0.6 0.008
 0.0 0.2 0.6 0.008
 0.2 0.2 0.6 0.008
 0.4 0.2 0.6 0.008
 0.6 0.2 0.6 0.008
 0.8 0.2 0.6 0.008
 0.0 0.4 0.6 0.008
 0.2 0.4 0.6 0.008
 0.4 0.4 0.6 0.008
 0.6 0.4 0.6 0.008
 0.8 0.4 0.6 0.008
 0.0 0.6 0.6 0.008
 0.2 0.6 0.6 0.008
 0.4 0.6 0.6 0.008
 0.6 0.6 0.6 0.008
 0.8 0.6 0.6 0.008
 0.0 0.8 0.6 0.008
 0.2 0.8 0.6 0.008
 0.4 0.8 0.6 0.008
 0.6 0.8 0.6 0.008
 0.8 0.8 0.6 0.008
 0.0 0.0 0.8 0.008
 0.2 0.0 0.8 0.008
 0.4 0.0 0.8 0.008
 0.6 0.0 0.8 0.008
 0.8 0.0 0.8 0.008
 0.0 0.2 0.8 0.008
 0.2 0.2 0.8 0.008
 0.4 0.2 0.8 0.008
 0.6 0.2 0.8 0.008
 0.8 0.2 0.8 0.008
 0.0 0.4 0.8 0.008
 0.2 0.4 0.8 0.008
 0.4 0.4 0.8 0.008
 0.6 0.4 0.8 0.008
 0.8 0.4 0.8 0.008
 0.0 0.6 0.8 0.008
 0.2 0.6 0.8 0.008
 0.4 0.6 0.8 0.008
 0.6 0.6 0.8 0.008
 0.8 0.6 0.8 0.008
 0.0 0.8 0.8 0.008
 0.2 0.8 0.8 0.008
 0.4 0.8 0.8 0.008
 0.6 0.8 0.8 0.008
 0.8 0.8 0.8 0.008

