&control
  prefix = 'NiO_afm'
  verbosity = 'high'
  calculation = 'scf'
  outdir = '/home/ponet/NiO/NSOC/outputs'
  pseudo_dir = '/home/ponet/pseudos/pbesol/PSEUDOPOTENTIALS'
  wf_collect = true
/

&system
  ibrav = 0
  nat = 4
  ntyp = 3
  Hubbard_U(1) = 8.0
  Hubbard_U(2) = 8.0
  starting_magnetization(1) = -1.0
  starting_magnetization(2) = 1.0
  ecutwfc = 45.0
  occupations = 'smearing'
  nspin = 2
  lda_plus_u = true
  degauss = 0.01
  lda_plus_u_kind = 1
  Hubbard_J0(1) = 0.9
  Hubbard_J0(2) = 0.9
/

&electrons
  conv_thr = 1.0e-7
/

ATOMIC_SPECIES
Ni 58.6934   Ni.pbesol-n-kjpaw_psl.0.1.UPF
Ni1 58.6934   Ni.pbesol-n-kjpaw_psl.0.1.UPF
O 15.9994   O.pbesol-n-kjpaw_psl.0.1.UPF

CELL_PARAMETERS (angstrom)
4.177001691472421 2.0885008457362106 2.0885008457362106
2.0885008457362106 4.177001691472421 2.0885008457362106
2.0885008457362106 2.0885008457362106 4.177001691472421

ATOMIC_POSITIONS (crystal) 
Ni  0.0 0.0 0.0
Ni1  0.5 0.5 0.5
O  0.25 0.25 0.25
O  0.75 0.75 0.75

K_POINTS (automatic)
 4 4 4 0 0 0

