num_bands         =  20
num_wann          =  16

dis_win_min       =  0.
dis_win_max       =  16.
dis_froz_min      =  0.
dis_froz_max      =  13.
dis_num_iter      =  500
dis_mix_ratio     =  0.5

num_iter  = 1000

Begin Projections
Ni1:d
Ni2:d
O:p
End Projections

!Begin projections
!random
!End projections

!Cd:s
!Ag:s;px;py;pz;dz2;dxy;dx2-y2;dxz;dyz:z=0,0,1

Begin Kpoint_Path
!G 0.00  0.00  0.50    L 0.0  0.0  0.0
Z 0.5  0.5  0.5    Z 0.0  0.0  0.0
G 0.0  0.0  0.0    X 0.5  0.0  0.0
!G 0.00  0.00  0.00    X 0.50  0.50  0.00
!X 0.50  0.50  0.00    W 0.50  0.75  0.25
!W 0.50  0.75  0.25    L 0.00  0.50  0.00
!L 0.00  0.50  0.00    G 0.00  0.00  0.00
!G 0.00  0.00  0.00    K 0.00  0.50 -0.50
End Kpoint_Path

!restart=plot
!fermi_energy=10.6547
!bands_plot = .true.
!fermi_surface_plot = .true.

!hr_plot=.true.
write_hr=.true.

!restart = plot
!fermi_energy = 10.6547
!fermi_surface_plot = true
!restart = plot
!wannier_plot = T
!wannier_plot_supercell = 2
!wannier_plot_list = 11-16

begin unit_cell_cart
bohr
7.893389        3.9466945       3.9466945
3.9466945       7.893389        3.9466945
3.9466945       3.9466945       7.893389
end unit_cell_cart

begin atoms_frac
Ni1  0.0   0.0   0.0
Ni2  0.5   0.5   0.5
O    0.25  0.25  0.25
O    0.75  0.75  0.75
end atoms_frac

mp_grid = 6 6 6

begin kpoints
  0.00000000  0.00000000  0.00000000 
  0.00000000  0.00000000  0.16666667 
  0.00000000  0.00000000  0.33333333 
  0.00000000  0.00000000  0.50000000 
  0.00000000  0.00000000  0.66666667 
  0.00000000  0.00000000  0.83333333 
  0.00000000  0.16666667  0.00000000 
  0.00000000  0.16666667  0.16666667 
  0.00000000  0.16666667  0.33333333 
  0.00000000  0.16666667  0.50000000 
  0.00000000  0.16666667  0.66666667 
  0.00000000  0.16666667  0.83333333 
  0.00000000  0.33333333  0.00000000 
  0.00000000  0.33333333  0.16666667 
  0.00000000  0.33333333  0.33333333 
  0.00000000  0.33333333  0.50000000 
  0.00000000  0.33333333  0.66666667 
  0.00000000  0.33333333  0.83333333 
  0.00000000  0.50000000  0.00000000 
  0.00000000  0.50000000  0.16666667 
  0.00000000  0.50000000  0.33333333 
  0.00000000  0.50000000  0.50000000 
  0.00000000  0.50000000  0.66666667 
  0.00000000  0.50000000  0.83333333 
  0.00000000  0.66666667  0.00000000 
  0.00000000  0.66666667  0.16666667 
  0.00000000  0.66666667  0.33333333 
  0.00000000  0.66666667  0.50000000 
  0.00000000  0.66666667  0.66666667 
  0.00000000  0.66666667  0.83333333 
  0.00000000  0.83333333  0.00000000 
  0.00000000  0.83333333  0.16666667 
  0.00000000  0.83333333  0.33333333 
  0.00000000  0.83333333  0.50000000 
  0.00000000  0.83333333  0.66666667 
  0.00000000  0.83333333  0.83333333 
  0.16666667  0.00000000  0.00000000 
  0.16666667  0.00000000  0.16666667 
  0.16666667  0.00000000  0.33333333 
  0.16666667  0.00000000  0.50000000 
  0.16666667  0.00000000  0.66666667 
  0.16666667  0.00000000  0.83333333 
  0.16666667  0.16666667  0.00000000 
  0.16666667  0.16666667  0.16666667 
  0.16666667  0.16666667  0.33333333 
  0.16666667  0.16666667  0.50000000 
  0.16666667  0.16666667  0.66666667 
  0.16666667  0.16666667  0.83333333 
  0.16666667  0.33333333  0.00000000 
  0.16666667  0.33333333  0.16666667 
  0.16666667  0.33333333  0.33333333 
  0.16666667  0.33333333  0.50000000 
  0.16666667  0.33333333  0.66666667 
  0.16666667  0.33333333  0.83333333 
  0.16666667  0.50000000  0.00000000 
  0.16666667  0.50000000  0.16666667 
  0.16666667  0.50000000  0.33333333 
  0.16666667  0.50000000  0.50000000 
  0.16666667  0.50000000  0.66666667 
  0.16666667  0.50000000  0.83333333 
  0.16666667  0.66666667  0.00000000 
  0.16666667  0.66666667  0.16666667 
  0.16666667  0.66666667  0.33333333 
  0.16666667  0.66666667  0.50000000 
  0.16666667  0.66666667  0.66666667 
  0.16666667  0.66666667  0.83333333 
  0.16666667  0.83333333  0.00000000 
  0.16666667  0.83333333  0.16666667 
  0.16666667  0.83333333  0.33333333 
  0.16666667  0.83333333  0.50000000 
  0.16666667  0.83333333  0.66666667 
  0.16666667  0.83333333  0.83333333 
  0.33333333  0.00000000  0.00000000 
  0.33333333  0.00000000  0.16666667 
  0.33333333  0.00000000  0.33333333 
  0.33333333  0.00000000  0.50000000 
  0.33333333  0.00000000  0.66666667 
  0.33333333  0.00000000  0.83333333 
  0.33333333  0.16666667  0.00000000 
  0.33333333  0.16666667  0.16666667 
  0.33333333  0.16666667  0.33333333 
  0.33333333  0.16666667  0.50000000 
  0.33333333  0.16666667  0.66666667 
  0.33333333  0.16666667  0.83333333 
  0.33333333  0.33333333  0.00000000 
  0.33333333  0.33333333  0.16666667 
  0.33333333  0.33333333  0.33333333 
  0.33333333  0.33333333  0.50000000 
  0.33333333  0.33333333  0.66666667 
  0.33333333  0.33333333  0.83333333 
  0.33333333  0.50000000  0.00000000 
  0.33333333  0.50000000  0.16666667 
  0.33333333  0.50000000  0.33333333 
  0.33333333  0.50000000  0.50000000 
  0.33333333  0.50000000  0.66666667 
  0.33333333  0.50000000  0.83333333 
  0.33333333  0.66666667  0.00000000 
  0.33333333  0.66666667  0.16666667 
  0.33333333  0.66666667  0.33333333 
  0.33333333  0.66666667  0.50000000 
  0.33333333  0.66666667  0.66666667 
  0.33333333  0.66666667  0.83333333 
  0.33333333  0.83333333  0.00000000 
  0.33333333  0.83333333  0.16666667 
  0.33333333  0.83333333  0.33333333 
  0.33333333  0.83333333  0.50000000 
  0.33333333  0.83333333  0.66666667 
  0.33333333  0.83333333  0.83333333 
  0.50000000  0.00000000  0.00000000 
  0.50000000  0.00000000  0.16666667 
  0.50000000  0.00000000  0.33333333 
  0.50000000  0.00000000  0.50000000 
  0.50000000  0.00000000  0.66666667 
  0.50000000  0.00000000  0.83333333 
  0.50000000  0.16666667  0.00000000 
  0.50000000  0.16666667  0.16666667 
  0.50000000  0.16666667  0.33333333 
  0.50000000  0.16666667  0.50000000 
  0.50000000  0.16666667  0.66666667 
  0.50000000  0.16666667  0.83333333 
  0.50000000  0.33333333  0.00000000 
  0.50000000  0.33333333  0.16666667 
  0.50000000  0.33333333  0.33333333 
  0.50000000  0.33333333  0.50000000 
  0.50000000  0.33333333  0.66666667 
  0.50000000  0.33333333  0.83333333 
  0.50000000  0.50000000  0.00000000 
  0.50000000  0.50000000  0.16666667 
  0.50000000  0.50000000  0.33333333 
  0.50000000  0.50000000  0.50000000 
  0.50000000  0.50000000  0.66666667 
  0.50000000  0.50000000  0.83333333 
  0.50000000  0.66666667  0.00000000 
  0.50000000  0.66666667  0.16666667 
  0.50000000  0.66666667  0.33333333 
  0.50000000  0.66666667  0.50000000 
  0.50000000  0.66666667  0.66666667 
  0.50000000  0.66666667  0.83333333 
  0.50000000  0.83333333  0.00000000 
  0.50000000  0.83333333  0.16666667 
  0.50000000  0.83333333  0.33333333 
  0.50000000  0.83333333  0.50000000 
  0.50000000  0.83333333  0.66666667 
  0.50000000  0.83333333  0.83333333 
  0.66666667  0.00000000  0.00000000 
  0.66666667  0.00000000  0.16666667 
  0.66666667  0.00000000  0.33333333 
  0.66666667  0.00000000  0.50000000 
  0.66666667  0.00000000  0.66666667 
  0.66666667  0.00000000  0.83333333 
  0.66666667  0.16666667  0.00000000 
  0.66666667  0.16666667  0.16666667 
  0.66666667  0.16666667  0.33333333 
  0.66666667  0.16666667  0.50000000 
  0.66666667  0.16666667  0.66666667 
  0.66666667  0.16666667  0.83333333 
  0.66666667  0.33333333  0.00000000 
  0.66666667  0.33333333  0.16666667 
  0.66666667  0.33333333  0.33333333 
  0.66666667  0.33333333  0.50000000 
  0.66666667  0.33333333  0.66666667 
  0.66666667  0.33333333  0.83333333 
  0.66666667  0.50000000  0.00000000 
  0.66666667  0.50000000  0.16666667 
  0.66666667  0.50000000  0.33333333 
  0.66666667  0.50000000  0.50000000 
  0.66666667  0.50000000  0.66666667 
  0.66666667  0.50000000  0.83333333 
  0.66666667  0.66666667  0.00000000 
  0.66666667  0.66666667  0.16666667 
  0.66666667  0.66666667  0.33333333 
  0.66666667  0.66666667  0.50000000 
  0.66666667  0.66666667  0.66666667 
  0.66666667  0.66666667  0.83333333 
  0.66666667  0.83333333  0.00000000 
  0.66666667  0.83333333  0.16666667 
  0.66666667  0.83333333  0.33333333 
  0.66666667  0.83333333  0.50000000 
  0.66666667  0.83333333  0.66666667 
  0.66666667  0.83333333  0.83333333 
  0.83333333  0.00000000  0.00000000 
  0.83333333  0.00000000  0.16666667 
  0.83333333  0.00000000  0.33333333 
  0.83333333  0.00000000  0.50000000 
  0.83333333  0.00000000  0.66666667 
  0.83333333  0.00000000  0.83333333 
  0.83333333  0.16666667  0.00000000 
  0.83333333  0.16666667  0.16666667 
  0.83333333  0.16666667  0.33333333 
  0.83333333  0.16666667  0.50000000 
  0.83333333  0.16666667  0.66666667 
  0.83333333  0.16666667  0.83333333 
  0.83333333  0.33333333  0.00000000 
  0.83333333  0.33333333  0.16666667 
  0.83333333  0.33333333  0.33333333 
  0.83333333  0.33333333  0.50000000 
  0.83333333  0.33333333  0.66666667 
  0.83333333  0.33333333  0.83333333 
  0.83333333  0.50000000  0.00000000 
  0.83333333  0.50000000  0.16666667 
  0.83333333  0.50000000  0.33333333 
  0.83333333  0.50000000  0.50000000 
  0.83333333  0.50000000  0.66666667 
  0.83333333  0.50000000  0.83333333 
  0.83333333  0.66666667  0.00000000 
  0.83333333  0.66666667  0.16666667 
  0.83333333  0.66666667  0.33333333 
  0.83333333  0.66666667  0.50000000 
  0.83333333  0.66666667  0.66666667 
  0.83333333  0.66666667  0.83333333 
  0.83333333  0.83333333  0.00000000 
  0.83333333  0.83333333  0.16666667 
  0.83333333  0.83333333  0.33333333 
  0.83333333  0.83333333  0.50000000 
  0.83333333  0.83333333  0.66666667 
  0.83333333  0.83333333  0.83333333 
end kpoints
