  mp_grid =   10 10 10
  dis_win_min = -2.86756
  dis_froz_min = 2.13244
  num_bands = 30
  spin = down
  write_hr = true
  num_wann = 16
  dis_win_max = 20.091
  dis_froz_max = 15.091

begin unit_cell_cart
5.042270183563232 0.0 0.0
4.2018918196360255 2.787220465907692 0.0
4.2018918196360255 1.26691831168581 2.4826429298410773
end unit_cell_cart

begin projections
Ni1: d
Ni2: d
O: p
end projections

begin atoms_frac
Ni1  0.0 0.0 0.0
Ni2  0.5 0.5 0.5
O  0.25 0.25 0.25
O  0.75 0.75 0.75
end atoms_frac

begin kpoints
0.0 0.0 0.0
0.1 0.0 0.0
0.2 0.0 0.0
0.3 0.0 0.0
0.4 0.0 0.0
0.5 0.0 0.0
0.6 0.0 0.0
0.7 0.0 0.0
0.8 0.0 0.0
0.9 0.0 0.0
0.0 0.1 0.0
0.1 0.1 0.0
0.2 0.1 0.0
0.3 0.1 0.0
0.4 0.1 0.0
0.5 0.1 0.0
0.6 0.1 0.0
0.7 0.1 0.0
0.8 0.1 0.0
0.9 0.1 0.0
0.0 0.2 0.0
0.1 0.2 0.0
0.2 0.2 0.0
0.3 0.2 0.0
0.4 0.2 0.0
0.5 0.2 0.0
0.6 0.2 0.0
0.7 0.2 0.0
0.8 0.2 0.0
0.9 0.2 0.0
0.0 0.3 0.0
0.1 0.3 0.0
0.2 0.3 0.0
0.3 0.3 0.0
0.4 0.3 0.0
0.5 0.3 0.0
0.6 0.3 0.0
0.7 0.3 0.0
0.8 0.3 0.0
0.9 0.3 0.0
0.0 0.4 0.0
0.1 0.4 0.0
0.2 0.4 0.0
0.3 0.4 0.0
0.4 0.4 0.0
0.5 0.4 0.0
0.6 0.4 0.0
0.7 0.4 0.0
0.8 0.4 0.0
0.9 0.4 0.0
0.0 0.5 0.0
0.1 0.5 0.0
0.2 0.5 0.0
0.3 0.5 0.0
0.4 0.5 0.0
0.5 0.5 0.0
0.6 0.5 0.0
0.7 0.5 0.0
0.8 0.5 0.0
0.9 0.5 0.0
0.0 0.6 0.0
0.1 0.6 0.0
0.2 0.6 0.0
0.3 0.6 0.0
0.4 0.6 0.0
0.5 0.6 0.0
0.6 0.6 0.0
0.7 0.6 0.0
0.8 0.6 0.0
0.9 0.6 0.0
0.0 0.7 0.0
0.1 0.7 0.0
0.2 0.7 0.0
0.3 0.7 0.0
0.4 0.7 0.0
0.5 0.7 0.0
0.6 0.7 0.0
0.7 0.7 0.0
0.8 0.7 0.0
0.9 0.7 0.0
0.0 0.8 0.0
0.1 0.8 0.0
0.2 0.8 0.0
0.3 0.8 0.0
0.4 0.8 0.0
0.5 0.8 0.0
0.6 0.8 0.0
0.7 0.8 0.0
0.8 0.8 0.0
0.9 0.8 0.0
0.0 0.9 0.0
0.1 0.9 0.0
0.2 0.9 0.0
0.3 0.9 0.0
0.4 0.9 0.0
0.5 0.9 0.0
0.6 0.9 0.0
0.7 0.9 0.0
0.8 0.9 0.0
0.9 0.9 0.0
0.0 0.0 0.1
0.1 0.0 0.1
0.2 0.0 0.1
0.3 0.0 0.1
0.4 0.0 0.1
0.5 0.0 0.1
0.6 0.0 0.1
0.7 0.0 0.1
0.8 0.0 0.1
0.9 0.0 0.1
0.0 0.1 0.1
0.1 0.1 0.1
0.2 0.1 0.1
0.3 0.1 0.1
0.4 0.1 0.1
0.5 0.1 0.1
0.6 0.1 0.1
0.7 0.1 0.1
0.8 0.1 0.1
0.9 0.1 0.1
0.0 0.2 0.1
0.1 0.2 0.1
0.2 0.2 0.1
0.3 0.2 0.1
0.4 0.2 0.1
0.5 0.2 0.1
0.6 0.2 0.1
0.7 0.2 0.1
0.8 0.2 0.1
0.9 0.2 0.1
0.0 0.3 0.1
0.1 0.3 0.1
0.2 0.3 0.1
0.3 0.3 0.1
0.4 0.3 0.1
0.5 0.3 0.1
0.6 0.3 0.1
0.7 0.3 0.1
0.8 0.3 0.1
0.9 0.3 0.1
0.0 0.4 0.1
0.1 0.4 0.1
0.2 0.4 0.1
0.3 0.4 0.1
0.4 0.4 0.1
0.5 0.4 0.1
0.6 0.4 0.1
0.7 0.4 0.1
0.8 0.4 0.1
0.9 0.4 0.1
0.0 0.5 0.1
0.1 0.5 0.1
0.2 0.5 0.1
0.3 0.5 0.1
0.4 0.5 0.1
0.5 0.5 0.1
0.6 0.5 0.1
0.7 0.5 0.1
0.8 0.5 0.1
0.9 0.5 0.1
0.0 0.6 0.1
0.1 0.6 0.1
0.2 0.6 0.1
0.3 0.6 0.1
0.4 0.6 0.1
0.5 0.6 0.1
0.6 0.6 0.1
0.7 0.6 0.1
0.8 0.6 0.1
0.9 0.6 0.1
0.0 0.7 0.1
0.1 0.7 0.1
0.2 0.7 0.1
0.3 0.7 0.1
0.4 0.7 0.1
0.5 0.7 0.1
0.6 0.7 0.1
0.7 0.7 0.1
0.8 0.7 0.1
0.9 0.7 0.1
0.0 0.8 0.1
0.1 0.8 0.1
0.2 0.8 0.1
0.3 0.8 0.1
0.4 0.8 0.1
0.5 0.8 0.1
0.6 0.8 0.1
0.7 0.8 0.1
0.8 0.8 0.1
0.9 0.8 0.1
0.0 0.9 0.1
0.1 0.9 0.1
0.2 0.9 0.1
0.3 0.9 0.1
0.4 0.9 0.1
0.5 0.9 0.1
0.6 0.9 0.1
0.7 0.9 0.1
0.8 0.9 0.1
0.9 0.9 0.1
0.0 0.0 0.2
0.1 0.0 0.2
0.2 0.0 0.2
0.3 0.0 0.2
0.4 0.0 0.2
0.5 0.0 0.2
0.6 0.0 0.2
0.7 0.0 0.2
0.8 0.0 0.2
0.9 0.0 0.2
0.0 0.1 0.2
0.1 0.1 0.2
0.2 0.1 0.2
0.3 0.1 0.2
0.4 0.1 0.2
0.5 0.1 0.2
0.6 0.1 0.2
0.7 0.1 0.2
0.8 0.1 0.2
0.9 0.1 0.2
0.0 0.2 0.2
0.1 0.2 0.2
0.2 0.2 0.2
0.3 0.2 0.2
0.4 0.2 0.2
0.5 0.2 0.2
0.6 0.2 0.2
0.7 0.2 0.2
0.8 0.2 0.2
0.9 0.2 0.2
0.0 0.3 0.2
0.1 0.3 0.2
0.2 0.3 0.2
0.3 0.3 0.2
0.4 0.3 0.2
0.5 0.3 0.2
0.6 0.3 0.2
0.7 0.3 0.2
0.8 0.3 0.2
0.9 0.3 0.2
0.0 0.4 0.2
0.1 0.4 0.2
0.2 0.4 0.2
0.3 0.4 0.2
0.4 0.4 0.2
0.5 0.4 0.2
0.6 0.4 0.2
0.7 0.4 0.2
0.8 0.4 0.2
0.9 0.4 0.2
0.0 0.5 0.2
0.1 0.5 0.2
0.2 0.5 0.2
0.3 0.5 0.2
0.4 0.5 0.2
0.5 0.5 0.2
0.6 0.5 0.2
0.7 0.5 0.2
0.8 0.5 0.2
0.9 0.5 0.2
0.0 0.6 0.2
0.1 0.6 0.2
0.2 0.6 0.2
0.3 0.6 0.2
0.4 0.6 0.2
0.5 0.6 0.2
0.6 0.6 0.2
0.7 0.6 0.2
0.8 0.6 0.2
0.9 0.6 0.2
0.0 0.7 0.2
0.1 0.7 0.2
0.2 0.7 0.2
0.3 0.7 0.2
0.4 0.7 0.2
0.5 0.7 0.2
0.6 0.7 0.2
0.7 0.7 0.2
0.8 0.7 0.2
0.9 0.7 0.2
0.0 0.8 0.2
0.1 0.8 0.2
0.2 0.8 0.2
0.3 0.8 0.2
0.4 0.8 0.2
0.5 0.8 0.2
0.6 0.8 0.2
0.7 0.8 0.2
0.8 0.8 0.2
0.9 0.8 0.2
0.0 0.9 0.2
0.1 0.9 0.2
0.2 0.9 0.2
0.3 0.9 0.2
0.4 0.9 0.2
0.5 0.9 0.2
0.6 0.9 0.2
0.7 0.9 0.2
0.8 0.9 0.2
0.9 0.9 0.2
0.0 0.0 0.3
0.1 0.0 0.3
0.2 0.0 0.3
0.3 0.0 0.3
0.4 0.0 0.3
0.5 0.0 0.3
0.6 0.0 0.3
0.7 0.0 0.3
0.8 0.0 0.3
0.9 0.0 0.3
0.0 0.1 0.3
0.1 0.1 0.3
0.2 0.1 0.3
0.3 0.1 0.3
0.4 0.1 0.3
0.5 0.1 0.3
0.6 0.1 0.3
0.7 0.1 0.3
0.8 0.1 0.3
0.9 0.1 0.3
0.0 0.2 0.3
0.1 0.2 0.3
0.2 0.2 0.3
0.3 0.2 0.3
0.4 0.2 0.3
0.5 0.2 0.3
0.6 0.2 0.3
0.7 0.2 0.3
0.8 0.2 0.3
0.9 0.2 0.3
0.0 0.3 0.3
0.1 0.3 0.3
0.2 0.3 0.3
0.3 0.3 0.3
0.4 0.3 0.3
0.5 0.3 0.3
0.6 0.3 0.3
0.7 0.3 0.3
0.8 0.3 0.3
0.9 0.3 0.3
0.0 0.4 0.3
0.1 0.4 0.3
0.2 0.4 0.3
0.3 0.4 0.3
0.4 0.4 0.3
0.5 0.4 0.3
0.6 0.4 0.3
0.7 0.4 0.3
0.8 0.4 0.3
0.9 0.4 0.3
0.0 0.5 0.3
0.1 0.5 0.3
0.2 0.5 0.3
0.3 0.5 0.3
0.4 0.5 0.3
0.5 0.5 0.3
0.6 0.5 0.3
0.7 0.5 0.3
0.8 0.5 0.3
0.9 0.5 0.3
0.0 0.6 0.3
0.1 0.6 0.3
0.2 0.6 0.3
0.3 0.6 0.3
0.4 0.6 0.3
0.5 0.6 0.3
0.6 0.6 0.3
0.7 0.6 0.3
0.8 0.6 0.3
0.9 0.6 0.3
0.0 0.7 0.3
0.1 0.7 0.3
0.2 0.7 0.3
0.3 0.7 0.3
0.4 0.7 0.3
0.5 0.7 0.3
0.6 0.7 0.3
0.7 0.7 0.3
0.8 0.7 0.3
0.9 0.7 0.3
0.0 0.8 0.3
0.1 0.8 0.3
0.2 0.8 0.3
0.3 0.8 0.3
0.4 0.8 0.3
0.5 0.8 0.3
0.6 0.8 0.3
0.7 0.8 0.3
0.8 0.8 0.3
0.9 0.8 0.3
0.0 0.9 0.3
0.1 0.9 0.3
0.2 0.9 0.3
0.3 0.9 0.3
0.4 0.9 0.3
0.5 0.9 0.3
0.6 0.9 0.3
0.7 0.9 0.3
0.8 0.9 0.3
0.9 0.9 0.3
0.0 0.0 0.4
0.1 0.0 0.4
0.2 0.0 0.4
0.3 0.0 0.4
0.4 0.0 0.4
0.5 0.0 0.4
0.6 0.0 0.4
0.7 0.0 0.4
0.8 0.0 0.4
0.9 0.0 0.4
0.0 0.1 0.4
0.1 0.1 0.4
0.2 0.1 0.4
0.3 0.1 0.4
0.4 0.1 0.4
0.5 0.1 0.4
0.6 0.1 0.4
0.7 0.1 0.4
0.8 0.1 0.4
0.9 0.1 0.4
0.0 0.2 0.4
0.1 0.2 0.4
0.2 0.2 0.4
0.3 0.2 0.4
0.4 0.2 0.4
0.5 0.2 0.4
0.6 0.2 0.4
0.7 0.2 0.4
0.8 0.2 0.4
0.9 0.2 0.4
0.0 0.3 0.4
0.1 0.3 0.4
0.2 0.3 0.4
0.3 0.3 0.4
0.4 0.3 0.4
0.5 0.3 0.4
0.6 0.3 0.4
0.7 0.3 0.4
0.8 0.3 0.4
0.9 0.3 0.4
0.0 0.4 0.4
0.1 0.4 0.4
0.2 0.4 0.4
0.3 0.4 0.4
0.4 0.4 0.4
0.5 0.4 0.4
0.6 0.4 0.4
0.7 0.4 0.4
0.8 0.4 0.4
0.9 0.4 0.4
0.0 0.5 0.4
0.1 0.5 0.4
0.2 0.5 0.4
0.3 0.5 0.4
0.4 0.5 0.4
0.5 0.5 0.4
0.6 0.5 0.4
0.7 0.5 0.4
0.8 0.5 0.4
0.9 0.5 0.4
0.0 0.6 0.4
0.1 0.6 0.4
0.2 0.6 0.4
0.3 0.6 0.4
0.4 0.6 0.4
0.5 0.6 0.4
0.6 0.6 0.4
0.7 0.6 0.4
0.8 0.6 0.4
0.9 0.6 0.4
0.0 0.7 0.4
0.1 0.7 0.4
0.2 0.7 0.4
0.3 0.7 0.4
0.4 0.7 0.4
0.5 0.7 0.4
0.6 0.7 0.4
0.7 0.7 0.4
0.8 0.7 0.4
0.9 0.7 0.4
0.0 0.8 0.4
0.1 0.8 0.4
0.2 0.8 0.4
0.3 0.8 0.4
0.4 0.8 0.4
0.5 0.8 0.4
0.6 0.8 0.4
0.7 0.8 0.4
0.8 0.8 0.4
0.9 0.8 0.4
0.0 0.9 0.4
0.1 0.9 0.4
0.2 0.9 0.4
0.3 0.9 0.4
0.4 0.9 0.4
0.5 0.9 0.4
0.6 0.9 0.4
0.7 0.9 0.4
0.8 0.9 0.4
0.9 0.9 0.4
0.0 0.0 0.5
0.1 0.0 0.5
0.2 0.0 0.5
0.3 0.0 0.5
0.4 0.0 0.5
0.5 0.0 0.5
0.6 0.0 0.5
0.7 0.0 0.5
0.8 0.0 0.5
0.9 0.0 0.5
0.0 0.1 0.5
0.1 0.1 0.5
0.2 0.1 0.5
0.3 0.1 0.5
0.4 0.1 0.5
0.5 0.1 0.5
0.6 0.1 0.5
0.7 0.1 0.5
0.8 0.1 0.5
0.9 0.1 0.5
0.0 0.2 0.5
0.1 0.2 0.5
0.2 0.2 0.5
0.3 0.2 0.5
0.4 0.2 0.5
0.5 0.2 0.5
0.6 0.2 0.5
0.7 0.2 0.5
0.8 0.2 0.5
0.9 0.2 0.5
0.0 0.3 0.5
0.1 0.3 0.5
0.2 0.3 0.5
0.3 0.3 0.5
0.4 0.3 0.5
0.5 0.3 0.5
0.6 0.3 0.5
0.7 0.3 0.5
0.8 0.3 0.5
0.9 0.3 0.5
0.0 0.4 0.5
0.1 0.4 0.5
0.2 0.4 0.5
0.3 0.4 0.5
0.4 0.4 0.5
0.5 0.4 0.5
0.6 0.4 0.5
0.7 0.4 0.5
0.8 0.4 0.5
0.9 0.4 0.5
0.0 0.5 0.5
0.1 0.5 0.5
0.2 0.5 0.5
0.3 0.5 0.5
0.4 0.5 0.5
0.5 0.5 0.5
0.6 0.5 0.5
0.7 0.5 0.5
0.8 0.5 0.5
0.9 0.5 0.5
0.0 0.6 0.5
0.1 0.6 0.5
0.2 0.6 0.5
0.3 0.6 0.5
0.4 0.6 0.5
0.5 0.6 0.5
0.6 0.6 0.5
0.7 0.6 0.5
0.8 0.6 0.5
0.9 0.6 0.5
0.0 0.7 0.5
0.1 0.7 0.5
0.2 0.7 0.5
0.3 0.7 0.5
0.4 0.7 0.5
0.5 0.7 0.5
0.6 0.7 0.5
0.7 0.7 0.5
0.8 0.7 0.5
0.9 0.7 0.5
0.0 0.8 0.5
0.1 0.8 0.5
0.2 0.8 0.5
0.3 0.8 0.5
0.4 0.8 0.5
0.5 0.8 0.5
0.6 0.8 0.5
0.7 0.8 0.5
0.8 0.8 0.5
0.9 0.8 0.5
0.0 0.9 0.5
0.1 0.9 0.5
0.2 0.9 0.5
0.3 0.9 0.5
0.4 0.9 0.5
0.5 0.9 0.5
0.6 0.9 0.5
0.7 0.9 0.5
0.8 0.9 0.5
0.9 0.9 0.5
0.0 0.0 0.6
0.1 0.0 0.6
0.2 0.0 0.6
0.3 0.0 0.6
0.4 0.0 0.6
0.5 0.0 0.6
0.6 0.0 0.6
0.7 0.0 0.6
0.8 0.0 0.6
0.9 0.0 0.6
0.0 0.1 0.6
0.1 0.1 0.6
0.2 0.1 0.6
0.3 0.1 0.6
0.4 0.1 0.6
0.5 0.1 0.6
0.6 0.1 0.6
0.7 0.1 0.6
0.8 0.1 0.6
0.9 0.1 0.6
0.0 0.2 0.6
0.1 0.2 0.6
0.2 0.2 0.6
0.3 0.2 0.6
0.4 0.2 0.6
0.5 0.2 0.6
0.6 0.2 0.6
0.7 0.2 0.6
0.8 0.2 0.6
0.9 0.2 0.6
0.0 0.3 0.6
0.1 0.3 0.6
0.2 0.3 0.6
0.3 0.3 0.6
0.4 0.3 0.6
0.5 0.3 0.6
0.6 0.3 0.6
0.7 0.3 0.6
0.8 0.3 0.6
0.9 0.3 0.6
0.0 0.4 0.6
0.1 0.4 0.6
0.2 0.4 0.6
0.3 0.4 0.6
0.4 0.4 0.6
0.5 0.4 0.6
0.6 0.4 0.6
0.7 0.4 0.6
0.8 0.4 0.6
0.9 0.4 0.6
0.0 0.5 0.6
0.1 0.5 0.6
0.2 0.5 0.6
0.3 0.5 0.6
0.4 0.5 0.6
0.5 0.5 0.6
0.6 0.5 0.6
0.7 0.5 0.6
0.8 0.5 0.6
0.9 0.5 0.6
0.0 0.6 0.6
0.1 0.6 0.6
0.2 0.6 0.6
0.3 0.6 0.6
0.4 0.6 0.6
0.5 0.6 0.6
0.6 0.6 0.6
0.7 0.6 0.6
0.8 0.6 0.6
0.9 0.6 0.6
0.0 0.7 0.6
0.1 0.7 0.6
0.2 0.7 0.6
0.3 0.7 0.6
0.4 0.7 0.6
0.5 0.7 0.6
0.6 0.7 0.6
0.7 0.7 0.6
0.8 0.7 0.6
0.9 0.7 0.6
0.0 0.8 0.6
0.1 0.8 0.6
0.2 0.8 0.6
0.3 0.8 0.6
0.4 0.8 0.6
0.5 0.8 0.6
0.6 0.8 0.6
0.7 0.8 0.6
0.8 0.8 0.6
0.9 0.8 0.6
0.0 0.9 0.6
0.1 0.9 0.6
0.2 0.9 0.6
0.3 0.9 0.6
0.4 0.9 0.6
0.5 0.9 0.6
0.6 0.9 0.6
0.7 0.9 0.6
0.8 0.9 0.6
0.9 0.9 0.6
0.0 0.0 0.7
0.1 0.0 0.7
0.2 0.0 0.7
0.3 0.0 0.7
0.4 0.0 0.7
0.5 0.0 0.7
0.6 0.0 0.7
0.7 0.0 0.7
0.8 0.0 0.7
0.9 0.0 0.7
0.0 0.1 0.7
0.1 0.1 0.7
0.2 0.1 0.7
0.3 0.1 0.7
0.4 0.1 0.7
0.5 0.1 0.7
0.6 0.1 0.7
0.7 0.1 0.7
0.8 0.1 0.7
0.9 0.1 0.7
0.0 0.2 0.7
0.1 0.2 0.7
0.2 0.2 0.7
0.3 0.2 0.7
0.4 0.2 0.7
0.5 0.2 0.7
0.6 0.2 0.7
0.7 0.2 0.7
0.8 0.2 0.7
0.9 0.2 0.7
0.0 0.3 0.7
0.1 0.3 0.7
0.2 0.3 0.7
0.3 0.3 0.7
0.4 0.3 0.7
0.5 0.3 0.7
0.6 0.3 0.7
0.7 0.3 0.7
0.8 0.3 0.7
0.9 0.3 0.7
0.0 0.4 0.7
0.1 0.4 0.7
0.2 0.4 0.7
0.3 0.4 0.7
0.4 0.4 0.7
0.5 0.4 0.7
0.6 0.4 0.7
0.7 0.4 0.7
0.8 0.4 0.7
0.9 0.4 0.7
0.0 0.5 0.7
0.1 0.5 0.7
0.2 0.5 0.7
0.3 0.5 0.7
0.4 0.5 0.7
0.5 0.5 0.7
0.6 0.5 0.7
0.7 0.5 0.7
0.8 0.5 0.7
0.9 0.5 0.7
0.0 0.6 0.7
0.1 0.6 0.7
0.2 0.6 0.7
0.3 0.6 0.7
0.4 0.6 0.7
0.5 0.6 0.7
0.6 0.6 0.7
0.7 0.6 0.7
0.8 0.6 0.7
0.9 0.6 0.7
0.0 0.7 0.7
0.1 0.7 0.7
0.2 0.7 0.7
0.3 0.7 0.7
0.4 0.7 0.7
0.5 0.7 0.7
0.6 0.7 0.7
0.7 0.7 0.7
0.8 0.7 0.7
0.9 0.7 0.7
0.0 0.8 0.7
0.1 0.8 0.7
0.2 0.8 0.7
0.3 0.8 0.7
0.4 0.8 0.7
0.5 0.8 0.7
0.6 0.8 0.7
0.7 0.8 0.7
0.8 0.8 0.7
0.9 0.8 0.7
0.0 0.9 0.7
0.1 0.9 0.7
0.2 0.9 0.7
0.3 0.9 0.7
0.4 0.9 0.7
0.5 0.9 0.7
0.6 0.9 0.7
0.7 0.9 0.7
0.8 0.9 0.7
0.9 0.9 0.7
0.0 0.0 0.8
0.1 0.0 0.8
0.2 0.0 0.8
0.3 0.0 0.8
0.4 0.0 0.8
0.5 0.0 0.8
0.6 0.0 0.8
0.7 0.0 0.8
0.8 0.0 0.8
0.9 0.0 0.8
0.0 0.1 0.8
0.1 0.1 0.8
0.2 0.1 0.8
0.3 0.1 0.8
0.4 0.1 0.8
0.5 0.1 0.8
0.6 0.1 0.8
0.7 0.1 0.8
0.8 0.1 0.8
0.9 0.1 0.8
0.0 0.2 0.8
0.1 0.2 0.8
0.2 0.2 0.8
0.3 0.2 0.8
0.4 0.2 0.8
0.5 0.2 0.8
0.6 0.2 0.8
0.7 0.2 0.8
0.8 0.2 0.8
0.9 0.2 0.8
0.0 0.3 0.8
0.1 0.3 0.8
0.2 0.3 0.8
0.3 0.3 0.8
0.4 0.3 0.8
0.5 0.3 0.8
0.6 0.3 0.8
0.7 0.3 0.8
0.8 0.3 0.8
0.9 0.3 0.8
0.0 0.4 0.8
0.1 0.4 0.8
0.2 0.4 0.8
0.3 0.4 0.8
0.4 0.4 0.8
0.5 0.4 0.8
0.6 0.4 0.8
0.7 0.4 0.8
0.8 0.4 0.8
0.9 0.4 0.8
0.0 0.5 0.8
0.1 0.5 0.8
0.2 0.5 0.8
0.3 0.5 0.8
0.4 0.5 0.8
0.5 0.5 0.8
0.6 0.5 0.8
0.7 0.5 0.8
0.8 0.5 0.8
0.9 0.5 0.8
0.0 0.6 0.8
0.1 0.6 0.8
0.2 0.6 0.8
0.3 0.6 0.8
0.4 0.6 0.8
0.5 0.6 0.8
0.6 0.6 0.8
0.7 0.6 0.8
0.8 0.6 0.8
0.9 0.6 0.8
0.0 0.7 0.8
0.1 0.7 0.8
0.2 0.7 0.8
0.3 0.7 0.8
0.4 0.7 0.8
0.5 0.7 0.8
0.6 0.7 0.8
0.7 0.7 0.8
0.8 0.7 0.8
0.9 0.7 0.8
0.0 0.8 0.8
0.1 0.8 0.8
0.2 0.8 0.8
0.3 0.8 0.8
0.4 0.8 0.8
0.5 0.8 0.8
0.6 0.8 0.8
0.7 0.8 0.8
0.8 0.8 0.8
0.9 0.8 0.8
0.0 0.9 0.8
0.1 0.9 0.8
0.2 0.9 0.8
0.3 0.9 0.8
0.4 0.9 0.8
0.5 0.9 0.8
0.6 0.9 0.8
0.7 0.9 0.8
0.8 0.9 0.8
0.9 0.9 0.8
0.0 0.0 0.9
0.1 0.0 0.9
0.2 0.0 0.9
0.3 0.0 0.9
0.4 0.0 0.9
0.5 0.0 0.9
0.6 0.0 0.9
0.7 0.0 0.9
0.8 0.0 0.9
0.9 0.0 0.9
0.0 0.1 0.9
0.1 0.1 0.9
0.2 0.1 0.9
0.3 0.1 0.9
0.4 0.1 0.9
0.5 0.1 0.9
0.6 0.1 0.9
0.7 0.1 0.9
0.8 0.1 0.9
0.9 0.1 0.9
0.0 0.2 0.9
0.1 0.2 0.9
0.2 0.2 0.9
0.3 0.2 0.9
0.4 0.2 0.9
0.5 0.2 0.9
0.6 0.2 0.9
0.7 0.2 0.9
0.8 0.2 0.9
0.9 0.2 0.9
0.0 0.3 0.9
0.1 0.3 0.9
0.2 0.3 0.9
0.3 0.3 0.9
0.4 0.3 0.9
0.5 0.3 0.9
0.6 0.3 0.9
0.7 0.3 0.9
0.8 0.3 0.9
0.9 0.3 0.9
0.0 0.4 0.9
0.1 0.4 0.9
0.2 0.4 0.9
0.3 0.4 0.9
0.4 0.4 0.9
0.5 0.4 0.9
0.6 0.4 0.9
0.7 0.4 0.9
0.8 0.4 0.9
0.9 0.4 0.9
0.0 0.5 0.9
0.1 0.5 0.9
0.2 0.5 0.9
0.3 0.5 0.9
0.4 0.5 0.9
0.5 0.5 0.9
0.6 0.5 0.9
0.7 0.5 0.9
0.8 0.5 0.9
0.9 0.5 0.9
0.0 0.6 0.9
0.1 0.6 0.9
0.2 0.6 0.9
0.3 0.6 0.9
0.4 0.6 0.9
0.5 0.6 0.9
0.6 0.6 0.9
0.7 0.6 0.9
0.8 0.6 0.9
0.9 0.6 0.9
0.0 0.7 0.9
0.1 0.7 0.9
0.2 0.7 0.9
0.3 0.7 0.9
0.4 0.7 0.9
0.5 0.7 0.9
0.6 0.7 0.9
0.7 0.7 0.9
0.8 0.7 0.9
0.9 0.7 0.9
0.0 0.8 0.9
0.1 0.8 0.9
0.2 0.8 0.9
0.3 0.8 0.9
0.4 0.8 0.9
0.5 0.8 0.9
0.6 0.8 0.9
0.7 0.8 0.9
0.8 0.8 0.9
0.9 0.8 0.9
0.0 0.9 0.9
0.1 0.9 0.9
0.2 0.9 0.9
0.3 0.9 0.9
0.4 0.9 0.9
0.5 0.9 0.9
0.6 0.9 0.9
0.7 0.9 0.9
0.8 0.9 0.9
0.9 0.9 0.9
end kpoints

