  mp_grid =   5 5 5
  dis_win_min = -3.32697
  dis_froz_min = 1.67303
  num_bands = 50
  spin = down
  num_iter = 1000
  num_wann = 16
  dis_win_max = 19.2868
  dis_froz_max = 14.2868

begin unit_cell_cart
4.177001691472421 2.0885008457362106 2.0885008457362106
2.0885008457362106 4.177001691472421 2.0885008457362106
2.0885008457362106 2.0885008457362106 4.177001691472421
end unit_cell_cart

begin projections
Ni: d
Ni1: d
O: p
end projections

begin atoms_frac
Ni  0.0 0.0 0.0
Ni1  0.5 0.5 0.5
O  0.25 0.25 0.25
O  0.75 0.75 0.75
end atoms_frac

begin kpoints
0.0 0.0 0.0
0.2 0.0 0.0
0.4 0.0 0.0
0.6 0.0 0.0
0.8 0.0 0.0
0.0 0.2 0.0
0.2 0.2 0.0
0.4 0.2 0.0
0.6 0.2 0.0
0.8 0.2 0.0
0.0 0.4 0.0
0.2 0.4 0.0
0.4 0.4 0.0
0.6 0.4 0.0
0.8 0.4 0.0
0.0 0.6 0.0
0.2 0.6 0.0
0.4 0.6 0.0
0.6 0.6 0.0
0.8 0.6 0.0
0.0 0.8 0.0
0.2 0.8 0.0
0.4 0.8 0.0
0.6 0.8 0.0
0.8 0.8 0.0
0.0 0.0 0.2
0.2 0.0 0.2
0.4 0.0 0.2
0.6 0.0 0.2
0.8 0.0 0.2
0.0 0.2 0.2
0.2 0.2 0.2
0.4 0.2 0.2
0.6 0.2 0.2
0.8 0.2 0.2
0.0 0.4 0.2
0.2 0.4 0.2
0.4 0.4 0.2
0.6 0.4 0.2
0.8 0.4 0.2
0.0 0.6 0.2
0.2 0.6 0.2
0.4 0.6 0.2
0.6 0.6 0.2
0.8 0.6 0.2
0.0 0.8 0.2
0.2 0.8 0.2
0.4 0.8 0.2
0.6 0.8 0.2
0.8 0.8 0.2
0.0 0.0 0.4
0.2 0.0 0.4
0.4 0.0 0.4
0.6 0.0 0.4
0.8 0.0 0.4
0.0 0.2 0.4
0.2 0.2 0.4
0.4 0.2 0.4
0.6 0.2 0.4
0.8 0.2 0.4
0.0 0.4 0.4
0.2 0.4 0.4
0.4 0.4 0.4
0.6 0.4 0.4
0.8 0.4 0.4
0.0 0.6 0.4
0.2 0.6 0.4
0.4 0.6 0.4
0.6 0.6 0.4
0.8 0.6 0.4
0.0 0.8 0.4
0.2 0.8 0.4
0.4 0.8 0.4
0.6 0.8 0.4
0.8 0.8 0.4
0.0 0.0 0.6
0.2 0.0 0.6
0.4 0.0 0.6
0.6 0.0 0.6
0.8 0.0 0.6
0.0 0.2 0.6
0.2 0.2 0.6
0.4 0.2 0.6
0.6 0.2 0.6
0.8 0.2 0.6
0.0 0.4 0.6
0.2 0.4 0.6
0.4 0.4 0.6
0.6 0.4 0.6
0.8 0.4 0.6
0.0 0.6 0.6
0.2 0.6 0.6
0.4 0.6 0.6
0.6 0.6 0.6
0.8 0.6 0.6
0.0 0.8 0.6
0.2 0.8 0.6
0.4 0.8 0.6
0.6 0.8 0.6
0.8 0.8 0.6
0.0 0.0 0.8
0.2 0.0 0.8
0.4 0.0 0.8
0.6 0.0 0.8
0.8 0.0 0.8
0.0 0.2 0.8
0.2 0.2 0.8
0.4 0.2 0.8
0.6 0.2 0.8
0.8 0.2 0.8
0.0 0.4 0.8
0.2 0.4 0.8
0.4 0.4 0.8
0.6 0.4 0.8
0.8 0.4 0.8
0.0 0.6 0.8
0.2 0.6 0.8
0.4 0.6 0.8
0.6 0.6 0.8
0.8 0.6 0.8
0.0 0.8 0.8
0.2 0.8 0.8
0.4 0.8 0.8
0.6 0.8 0.8
0.8 0.8 0.8
end kpoints

