!  wannier_plot_supercell =   3 3 3
  dis_win_min = -3.32697
  dis_froz_min = 1.67303
  num_bands = 50
  spin = up
!  wannier_plot = true
  dis_win_max = 26.1116
!  write_hr = true
  num_wann = 18
!  restart = plot
  mp_grid =   5 5 5
  dis_froz_max = 21.1116

begin unit_cell_cart
4.177001691472421 2.0885008457362106 2.0885008457362106
2.0885008457362106 4.177001691472421 2.0885008457362106
2.0885008457362106 2.0885008457362106 4.177001691472421
end unit_cell_cart

begin projections
Ni1: s;d
Ni2: s;d
O: p
end projections

begin atoms_frac
Ni1  0.0 0.0 0.0
Ni2  0.5 0.5 0.5
O  0.25 0.25 0.25
O  0.75 0.75 0.75
end atoms_frac

begin kpoints
0.0 0.0 0.0
0.2 0.0 0.0
0.4 0.0 0.0
0.6 0.0 0.0
0.8 0.0 0.0
0.0 0.2 0.0
0.2 0.2 0.0
0.4 0.2 0.0
0.6 0.2 0.0
0.8 0.2 0.0
0.0 0.4 0.0
0.2 0.4 0.0
0.4 0.4 0.0
0.6 0.4 0.0
0.8 0.4 0.0
0.0 0.6 0.0
0.2 0.6 0.0
0.4 0.6 0.0
0.6 0.6 0.0
0.8 0.6 0.0
0.0 0.8 0.0
0.2 0.8 0.0
0.4 0.8 0.0
0.6 0.8 0.0
0.8 0.8 0.0
0.0 0.0 0.2
0.2 0.0 0.2
0.4 0.0 0.2
0.6 0.0 0.2
0.8 0.0 0.2
0.0 0.2 0.2
0.2 0.2 0.2
0.4 0.2 0.2
0.6 0.2 0.2
0.8 0.2 0.2
0.0 0.4 0.2
0.2 0.4 0.2
0.4 0.4 0.2
0.6 0.4 0.2
0.8 0.4 0.2
0.0 0.6 0.2
0.2 0.6 0.2
0.4 0.6 0.2
0.6 0.6 0.2
0.8 0.6 0.2
0.0 0.8 0.2
0.2 0.8 0.2
0.4 0.8 0.2
0.6 0.8 0.2
0.8 0.8 0.2
0.0 0.0 0.4
0.2 0.0 0.4
0.4 0.0 0.4
0.6 0.0 0.4
0.8 0.0 0.4
0.0 0.2 0.4
0.2 0.2 0.4
0.4 0.2 0.4
0.6 0.2 0.4
0.8 0.2 0.4
0.0 0.4 0.4
0.2 0.4 0.4
0.4 0.4 0.4
0.6 0.4 0.4
0.8 0.4 0.4
0.0 0.6 0.4
0.2 0.6 0.4
0.4 0.6 0.4
0.6 0.6 0.4
0.8 0.6 0.4
0.0 0.8 0.4
0.2 0.8 0.4
0.4 0.8 0.4
0.6 0.8 0.4
0.8 0.8 0.4
0.0 0.0 0.6
0.2 0.0 0.6
0.4 0.0 0.6
0.6 0.0 0.6
0.8 0.0 0.6
0.0 0.2 0.6
0.2 0.2 0.6
0.4 0.2 0.6
0.6 0.2 0.6
0.8 0.2 0.6
0.0 0.4 0.6
0.2 0.4 0.6
0.4 0.4 0.6
0.6 0.4 0.6
0.8 0.4 0.6
0.0 0.6 0.6
0.2 0.6 0.6
0.4 0.6 0.6
0.6 0.6 0.6
0.8 0.6 0.6
0.0 0.8 0.6
0.2 0.8 0.6
0.4 0.8 0.6
0.6 0.8 0.6
0.8 0.8 0.6
0.0 0.0 0.8
0.2 0.0 0.8
0.4 0.0 0.8
0.6 0.0 0.8
0.8 0.0 0.8
0.0 0.2 0.8
0.2 0.2 0.8
0.4 0.2 0.8
0.6 0.2 0.8
0.8 0.2 0.8
0.0 0.4 0.8
0.2 0.4 0.8
0.4 0.4 0.8
0.6 0.4 0.8
0.8 0.4 0.8
0.0 0.6 0.8
0.2 0.6 0.8
0.4 0.6 0.8
0.6 0.6 0.8
0.8 0.6 0.8
0.0 0.8 0.8
0.2 0.8 0.8
0.4 0.8 0.8
0.6 0.8 0.8
0.8 0.8 0.8
end kpoints

